c ---- [ banner ] ------------------------------------------------------------
c
c Kissat SAT Solver
c 
c Copyright (c) 2021-2023 Armin Biere University of Freiburg
c Copyright (c) 2019-2021 Armin Biere Johannes Kepler University Linz
c 
c Version 3.1.1 unknown
c gcc (Ubuntu 9.4.0-1ubuntu1~20.04.2) 9.4.0 -W -Wall -O3 -DNDEBUG
c Mon Feb 26 18:18:52 CET 2024 Linux OptiPlex-7080 5.15.0-88-generic x86_64
c
c ---- [ parsing ] -----------------------------------------------------------
c
c opened and reading DIMACS file:
c
c   /home/oliveras/SAT-comp-2023//14a5ff0d6213dcfe182ec656764bbdfb-satcoin-genesis-UNSAT-9080.cnf
c
c parsed 'p cnf 141429 646176' header
c closing input after reading 14106356 bytes (13 MB)
c finished parsing after 0.21 seconds
c
c ---- [ options ] -----------------------------------------------------------
c
c --seed=1                         (different from default '0')
c
c ---- [ solving ] -----------------------------------------------------------
c
c  seconds switched conflicts    irredundant  variables
c         MB reductions redundant        trail      remaining
c          level restarts    binary         glue
c
c *  0.21 46 0 0 0  0   0   0 51390 594625 0% 0 124570 88%
c {  0.21 46 0 0 0  0   0   0 51390 594625 0% 0 124570 88%
c i  0.21 46 9 0 0  0   1   0 51390 594625 0% 0 124567 88%
c -  0.38 48 330 0 1 353 1000 442 50362 594625 3% 7 124567 88%
c }  0.38 48 330 1 1 353 1000 442 50362 594625 3% 7 124567 88%
c [  0.38 48 0 1 1 353 1000 442 50362 594625 0% 0 124567 88%
c B  0.39 49 769 1 1 353 1001 443 50362 594625 8% 2 124567 88%
c ]  0.55 49 946 2 1 353 1072 508 50368 594625 23% 81 124567 88%
c {  0.55 49 330 2 1 353 1072 508 50368 594625 3% 7 124567 88%
c i  0.55 49 331 2 1 353 1073 508 50368 594625 3% 7 124565 88%
c i  0.55 49 335 2 1 355 1079 509 50372 594625 3% 7 124561 88%
c i  0.62 54 376 2 1 370 1680 883 50586 594625 5% 6 124558 88%
c i  1.12 59 390 2 1 380 1800 982 50600 594625 5% 6 124555 88%
c i  1.12 59 389 2 1 380 1801 982 50600 594625 5% 6 124550 88%
c i  1.15 59 389 2 1 380 1802 982 50600 594625 6% 6 124292 88%
c -  1.17 59 369 2 2 458 2000 868 50266 594625 5% 7 124292 88%
c }  1.18 59 363 3 2 481 2072 938 50266 594625 5% 7 124292 88%
c [  1.18 59 946 3 2 481 2072 938 50266 594625 23% 81 124292 88%
c W  1.23 59 946 3 2 481 2072 938 50266 592067 23% 81 124292 88%
c d  1.35 61 511 3 2 482 3376 2208 51487 590729 5% 26 124230 88%
c
c  seconds   switched conflicts       irredundant   variables
c         MB  reductions   redundant          trail       remaining
c           level restarts        binary          glue
c
c b  1.37 61 511 3 2 482 3376 2208 51487 590729 5% 26 124223 88%
c u  1.40 61 511 3 2 482 3376 2206 51489 590729 5% 26 124223 88%
c v  1.43 61 511 3 2 482 3376 2205 51490 590729 5% 26 124223 88%
c w  1.68 65 511 3 2 482 3376 2218 51540 590605 5% 26 124223 88%
c =  1.79 65 511 3 2 482 3376 2218 52874 590356 5% 26 123533 87%
c d  1.83 65 511 3 2 482 3376 2218 50714 590160 5% 26 123485 87%
c t  1.87 65 511 3 2 482 3376 2218 50705 590160 5% 26 123485 87%
c -  1.89 65 502 3 3 482 3414 1212 50631 590160 5% 26 123485 87%
c I  1.92 65 459 3 3 483 4333 2104 50633 590160 5% 24 123485 87%
c -  2.19 67 412 3 4 483 5146 1452 50634 590160 5% 29 123485 87%
c ]  2.33 67 407 4 4 483 5240 1536 50634 590160 5% 30 123485 87%
c {  2.33 67 363 4 4 483 5240 1536 50634 590160 5% 7 123485 87%
c d 33.76 67 431 4 4 960 6748 2972 50653 590160 31% 8 123476 87%
c u 33.84 67 431 4 4 960 6748 2971 50654 590160 31% 8 123476 87%
c v 34.03 67 431 4 4 960 6748 2971 50654 590160 31% 8 123476 87%
c w 34.63 67 431 4 4 960 6748 3715 55057 585013 31% 8 123476 87%
c = 35.11 67 431 4 4 960 6748 3715 58505 585013 31% 8 121752 86%
c d 35.15 67 431 4 4 960 6748 3715 55057 585013 31% 8 121752 86%
c t 35.20 67 431 4 4 960 6748 3715 46916 585013 31% 8 121752 86%
c - 42.90 67 402 4 5 1059 7148 2784 46923 585013 34% 8 121752 86%
c
c  seconds   switched  conflicts       irredundant   variables
c         MB  reductions    redundant           trail      remaining
c           level  restarts        binary          glue
c
c } 52.34 67 396 5 5 1125 7593 3215 46930 585013 38% 8 121752 86%
c [ 52.34 67 407 5 5 1125 7593 3215 46930 585013 5% 30 121752 86%
c B 52.37 67 950 5 5 1125 8104 3716 46930 585013 5% 31 121752 86%
c - 55.77 67 768 5 6 1126 9386 3181 46935 585013 8% 49 121752 86%
c - 59.13 69 601 5 7 1128 11835 3333 46936 585013 8% 62 121752 86%
c W 70.34 72 533 5 7 1129 13635 5131 46936 585013 12% 84 121752 86%
c u 70.67 72 530 5 7 1129 13746 5201 46977 585013 12% 85 121752 86%
c v 70.93 72 530 5 7 1129 13746 5201 46977 585013 12% 85 121752 86%
c w 71.55 72 530 5 7 1129 13746 6967 46983 583241 12% 85 121752 86%
c = 73.05 72 530 5 7 1129 13746 6967 50823 583241 12% 85 119832 85%
c d 73.09 72 530 5 7 1129 13746 6967 46979 583241 12% 85 119832 85%
c t 73.15 72 530 5 7 1129 13746 6967 43100 583241 12% 85 119832 85%
c - 74.67 74 513 5 8 1130 14480 5167 43102 583241 12% 87 119832 85%
c s 81.16 74 467 5 8 1131 16880 7556 43380 581050 13% 90 119832 85%
c e 82.07 82 467 5 8 1131 16880 7556 7711 562247 13% 90 82614 58%
c s 82.13 82 467 5 8 1131 16880 7556 7853 547182 13% 90 82614 58%
c e 82.26 82 467 5 8 1131 16880 7556 7518 547306 13% 90 82435 58%
c ^ 82.26 82 467 5 8 1131 16880 7556 7518 547306 13% 90 82435 58%
c - 82.36 78 465 5 9 1131 17308 1958 7519 547306 13% 88 82435 58%
c - 82.66 80 428 5 10 1132 20308 2802 7536 547306 12% 77 82435 58%
c
c  seconds   switched    conflicts      irredundant    variables
c         MB   reductions     redundant          trail      remaining
c           level   restarts         binary          glue
c
c O 83.57 80 421 5 10 1133 21163 3645 7540 547306 12% 75 82435 58%
c - 85.25 80 405 5 11 1134 23471 3352 7544 547306 11% 74 82435 58%
c u 87.76 80 399 5 11 1135 24599 4474 7547 547306 11% 75 82435 58%
c v 87.80 80 399 5 11 1135 24599 4474 7547 547306 11% 75 82435 58%
c w 88.37 82 399 5 11 1135 24599 8526 7645 543152 11% 75 82434 58%
c = 88.53 82 399 5 11 1135 24599 8526 7667 543130 11% 75 82421 58%
c d 88.56 82 399 5 11 1135 24599 8519 7654 543099 11% 75 82421 58%
c t 88.60 82 399 5 11 1135 24599 8519 7599 543099 11% 75 82421 58%
c i 88.61 82 399 5 11 1135 24599 8519 7599 543099 11% 75 82421 58%
c - 90.81 82 403 5 12 1137 26787 7604 7606 543099 11% 78 82421 58%
c ] 93.40 82 398 6 12 1138 28347 9144 7609 543099 11% 79 82421 58%
c { 93.40 82 396 6 12 1138 28347 9144 7609 543099 38% 8 82421 58%
c - 122.74 84 357 6 13 1168 30251 8689 7622 543099 46% 8 82421 58%
c } 135.78 84 409 7 13 1184 32416 10791 7643 543099 41% 8 82421 58%
c [ 135.78 84 398 7 13 1184 32416 10791 7643 543099 11% 79 82421 58%
c B 135.78 84 398 7 13 1184 32416 10791 7643 543099 11% 79 82421 58%
c s 137.12 84 392 7 13 1184 33377 11741 7687 543026 11% 79 82421 58%
c e 137.64 84 392 7 13 1184 33377 11741 4636 547304 11% 79 80707 57%
c s 137.66 84 392 7 13 1184 33377 11741 4658 546716 11% 79 80707 57%
c ^ 137.69 84 392 7 13 1184 33377 11741 4658 546716 11% 79 80707 57%
c
c  seconds    switched    conflicts      irredundant    variables
c          MB   reductions     redundant          trail      remaining
c            level   restarts         binary          glue
c
c - 138.34 84 390 7 14 1185 33859 9014 4658 546716 11% 79 80707 57%
c - 143.35 84 374 7 15 1188 37601 9628 4662 546716 11% 80 80707 57%
c u 149.33 84 368 7 15 1189 39265 11250 4702 546716 12% 83 80707 57%
c v 149.80 84 368 7 15 1189 39265 10945 5007 546716 12% 83 80707 57%
c w 150.40 84 368 7 15 1189 39265 11112 5022 546534 12% 83 80707 57%
c = 150.54 84 368 7 15 1189 39265 11112 5028 546534 12% 83 80704 57%
c d 150.57 84 368 7 15 1189 39265 11111 5020 546534 12% 83 80704 57%
c t 150.62 84 368 7 15 1189 39265 11111 4669 546534 12% 83 80704 57%
c - 154.97 84 361 7 16 1190 41473 9776 4674 546534 12% 85 80704 57%
c W 162.26 85 352 7 16 1190 44638 12931 4676 546534 12% 86 80704 57%
c - 165.08 85 350 7 17 1191 45473 9991 4676 546534 13% 87 80704 57%
c ] 173.10 85 345 8 17 1193 47900 12400 4678 546534 13% 90 80704 57%
c { 173.10 85 409 8 17 1193 47900 12400 4678 546534 41% 8 80704 57%
c - 204.24 85 382 8 18 1532 49596 10825 4685 546534 47% 8 80704 57%
c - 246.41 85 296 8 19 1917 53838 12122 4706 546534 45% 8 80704 57%
c } 247.67 85 291 9 19 1917 54061 12341 4709 546534 45% 8 80704 57%
c [ 247.67 85 345 9 19 1917 54061 12341 4709 546534 13% 90 80704 57%
c u 261.28 85 338 9 19 1919 58153 16378 4738 546534 14% 95 80704 57%
c v 261.94 85 338 9 19 1919 58153 16376 4740 546534 14% 95 80704 57%
c w 262.51 85 338 9 19 1919 58153 16481 4745 546424 14% 95 80704 57%
c
c  seconds    switched    conflicts       irredundant    variables
c          MB   reductions      redundant          trail      remaining
c            level   restarts          binary          glue
c
c t 262.70 85 338 9 19 1919 58153 16481 4713 546424 14% 95 80704 57%
c - 262.72 85 338 9 20 1920 58196 12946 4714 546424 14% 95 80704 57%
c I 267.41 85 336 9 20 1921 59542 14288 4714 546424 14% 96 80704 57%
c - 273.38 85 335 9 21 1923 62668 12946 4718 546424 14% 95 80704 57%
c - 291.80 87 331 9 22 1924 67250 13190 4728 546424 15% 97 80704 57%
c s 297.02 87 330 9 22 1926 69111 15038 4731 546417 15% 98 80704 57%
c e 297.50 65 330 9 22 1926 69111 15038 4153 547576 15% 98 80384 57%
c s 297.50 65 330 9 22 1926 69111 15038 4167 547330 15% 98 80384 57%
c ^ 297.52 65 330 9 22 1926 69111 15038 4167 547330 15% 98 80384 57%
c - 308.16 75 329 9 23 1928 71940 12704 4167 547330 16% 100 80384 57%
c ] 311.53 77 327 10 23 1930 74863 15625 4167 547330 15% 98 80384 57%
c { 311.53 77 291 10 23 1930 74863 15625 4167 547330 45% 8 80384 57%
c - 346.65 81 260 10 24 2053 76736 13917 4168 547330 49% 8 80384 57%
c u 432.01 81 208 10 24 2244 81393 18536 4174 547330 55% 8 80384 57%
c v 432.71 81 208 10 24 2244 81393 18536 4174 547330 55% 8 80384 57%
c w 433.30 81 208 10 24 2244 81393 18592 4174 547270 55% 8 80383 57%
c t 433.48 81 208 10 24 2244 81393 18589 4171 547268 55% 8 80383 57%
c i 433.48 81 208 10 24 2244 81393 18589 4171 547268 55% 8 80383 57%
c - 436.59 81 215 10 25 2285 81635 15687 4166 547268 55% 8 80383 57%
c i 460.53 81 204 10 25 2450 83060 17092 4177 547268 56% 8 80382 57%
c
c  seconds     switched    conflicts       irredundant   variables
c          MB    reductions      redundant          trail     remaining
c            level    restarts          binary         glue
c
c } 460.57 81 213 11 25 2450 83492 17519 4178 547268 55% 8 80382 57%
c [ 460.57 81 327 11 25 2450 83492 17519 4178 547268 15% 98 80382 57%
c B 460.57 81 327 11 25 2450 83492 17519 4178 547268 15% 98 80382 57%
c - 464.42 81 325 11 26 2452 86635 16442 4161 547268 15% 97 80382 57%
c - 469.42 81 319 11 27 2456 91734 17174 4162 547268 14% 95 80382 57%
c - 482.77 81 316 11 28 2458 96931 17585 4165 547268 14% 96 80382 57%
c - 494.01 81 314 11 29 2462 102222 18048 4168 547268 14% 98 80382 57%
c W 505.51 81 313 11 29 2463 104403 20223 4170 547234 15% 99 80382 57%
c - 517.51 81 309 11 30 2463 107607 18579 4173 547234 15% 99 80382 57%
c d 520.24 81 309 11 30 2464 109149 20112 4200 547208 15% 99 80381 57%
c d 520.26 81 309 11 30 2464 109149 20105 4190 547208 15% 99 80377 57%
c u 520.46 81 309 11 30 2464 109149 20069 4226 547208 15% 99 80377 57%
c v 520.76 81 309 11 30 2464 109149 20065 4230 547208 15% 99 80377 57%
c w 521.33 81 309 11 30 2464 109149 20132 4258 547113 15% 99 80377 57%
c = 521.49 81 309 11 30 2464 109149 20132 4268 547113 15% 99 80372 57%
c d 521.52 81 309 11 30 2464 109149 20127 4255 547113 15% 99 80372 57%
c t 521.57 81 309 11 30 2464 109149 20127 4195 547113 15% 99 80372 57%
c - 542.10 81 309 11 31 2464 113084 18890 4196 547113 16% 103 80372 57%
c - 561.48 81 309 11 32 2467 118651 19203 4204 547113 17% 106 80372 57%
c - 569.87 81 309 11 33 2470 124307 19771 4211 547113 16% 106 80372 57%
c
c  seconds     switched    conflicts        irredundant     variables
c          MB    reductions       redundant          trail       remaining
c            level    restarts           binary          glue
c
c s 577.90 81 309 11 33 2471 126668 22115 4217 547100 16% 107 80372 57%
c e 578.57 83 309 11 33 2471 126668 22115 3897 567605 16% 107 74468 53%
c 2 578.57 83 309 11 33 2471 126668 22115 3896 567605 16% 107 74468 53%
c s 578.62 83 309 11 33 2471 126668 22115 3907 567177 16% 107 74468 53%
c e 578.66 83 309 11 33 2471 126668 22115 3897 567214 16% 107 74460 53%
c ^ 578.66 83 309 11 33 2471 126668 22115 3897 567214 16% 107 74460 53%
c O 580.04 85 309 11 33 2471 128628 17334 3897 567214 16% 107 74460 53%
c - 581.97 85 309 11 34 2473 130051 15113 3898 567214 16% 106 74460 53%
c ] 589.50 85 309 12 34 2474 131911 16968 3899 567214 16% 107 74460 53%
c { 589.50 85 213 12 34 2474 131911 16968 3899 567214 55% 8 74460 53%
c - 636.38 87 239 12 35 2696 135884 17499 3911 567214 54% 8 74460 53%
c i 672.39 87 220 12 35 2696 137972 19570 3920 567214 55% 8 74459 53%
c b 737.23 87 220 12 35 3089 141586 20603 3931 567204 57% 8 74458 53%
c u 737.58 87 220 12 35 3089 141586 19803 4730 567204 57% 8 74458 53%
c v 739.82 87 220 12 35 3089 141586 19635 4898 567204 57% 8 74458 53%
c w 740.46 87 220 12 35 3089 141586 19817 5006 566908 57% 8 74458 53%
c = 740.75 87 220 12 35 3089 141586 19817 5018 566903 57% 8 74451 53%
c d 740.78 87 220 12 35 3089 141586 19813 4960 566894 57% 8 74451 53%
c t 740.83 87 220 12 35 3089 141586 19813 3967 566894 57% 8 74451 53%
c - 742.53 87 227 12 36 3091 141800 17341 3953 566893 57% 8 74451 53%
c
c  seconds     switched    conflicts        irredundant   variables
c          MB    reductions       redundant          trail     remaining
c            level    restarts           binary         glue
c
c } 762.89 87 226 13 36 3137 143390 18899 3955 566893 57% 8 74451 53%
c [ 762.89 87 309 13 36 3137 143390 18899 3955 566893 16% 107 74451 53%
c - 779.57 87 308 13 37 3140 147801 19032 3957 566893 16% 109 74451 53%
c - 794.13 87 307 13 38 3143 153883 19383 3962 566893 16% 109 74451 53%
c B 797.04 87 307 13 38 3144 156368 21864 3962 566893 16% 108 74451 53%
c - 802.55 87 306 13 39 3147 160047 19364 3963 566893 16% 107 74451 53%
c - 815.23 87 306 13 40 3150 166291 19918 3963 566893 16% 107 74451 53%
c - 835.38 87 306 13 41 3151 172616 20229 3966 566893 16% 108 74451 53%
c u 860.60 87 306 13 41 3154 178999 26292 4274 566893 16% 109 74451 53%
c v 861.53 87 306 13 41 3154 178999 26288 4278 566893 16% 109 74451 53%
c w 862.22 87 306 13 41 3154 178999 26350 4313 566796 16% 109 74451 53%
c d 862.48 87 306 13 41 3154 178999 26349 4310 566795 16% 109 74450 53%
c t 862.55 87 306 13 41 3154 178999 26349 3980 566795 16% 109 74450 53%
c - 862.57 87 306 13 42 3154 179019 20346 3980 566795 16% 109 74450 53%
c - 882.55 87 306 13 43 3158 185500 20984 3983 566795 17% 111 74450 53%
c W 897.54 87 306 13 43 3158 187819 23294 3983 566795 17% 112 74450 53%
c ] 910.11 87 305 14 43 3161 191666 27131 3985 566795 17% 113 74450 53%
c { 910.11 87 226 14 43 3161 191666 27131 3985 566795 57% 8 74450 53%
c - 918.27 88 226 14 44 3222 192057 21817 3985 566795 57% 8 74450 53%
c i 967.53 88 210 14 44 3222 194250 23990 3992 566795 58% 8 74449 53%
c
c  seconds     switched    conflicts        irredundant   variables
c          MB    reductions       redundant          trail     remaining
c            level    restarts           binary         glue
c
c i 993.04 88 215 14 44 3223 196421 26101 4009 566795 57% 8 74444 53%
c i 1005.24 88 219 14 44 3226 197216 26875 4018 566793 57% 7 74442 53%
c i 1009.86 88 218 14 44 3226 197449 27088 4027 566793 57% 7 74441 53%
c - 1010.10 88 218 14 45 3226 198691 21750 4039 566790 55% 7 74441 53%
c - 1013.89 88 221 14 46 3228 205400 25867 4048 566787 46% 7 74441 53%
c i 1019.95 89 217 14 46 3228 206101 26531 4057 566787 46% 7 74440 53%
c i 1021.74 89 219 14 46 3261 206297 26715 4060 566787 46% 7 74436 53%
c } 1021.81 89 219 15 46 3262 206381 26797 4060 566787 46% 7 74436 53%
c [ 1021.81 89 305 15 46 3262 206381 26797 4060 566787 17% 113 74436 53%
c 2 1026.50 89 306 15 46 3264 208891 29300 4038 566787 17% 113 74436 53%
c s 1026.51 89 306 15 46 3264 208891 29300 4074 566001 17% 113 74436 53%
c e 1027.14 67 306 15 46 3264 208891 29300 3340 571278 17% 113 73679 52%
c 2 1027.14 67 306 15 46 3264 208891 29300 3338 571278 17% 113 73679 52%
c s 1027.16 67 306 15 46 3264 208891 29300 3364 570267 17% 113 73679 52%
c e 1027.20 67 306 15 46 3264 208891 29300 3356 570438 17% 113 73650 52%
c ^ 1027.20 67 306 15 46 3264 208891 29300 3356 570438 17% 113 73650 52%
c - 1037.45 77 305 15 47 3266 212182 19674 3552 570308 17% 113 73650 52%
c - 1060.70 79 303 15 48 3269 219039 20476 3552 570308 17% 114 73650 52%
c d 1066.01 79 304 15 48 3271 221348 22715 3507 570303 17% 113 73633 52%
c u 1067.20 81 304 15 48 3271 221348 22570 3647 570303 17% 113 73629 52%
c
c   seconds     switched    conflicts        irredundant     variables
c           MB    reductions       redundant          trail       remaining
c             level    restarts           binary          glue
c
c v 1070.44 83 304 15 48 3271 221348 22554 3661 570303 17% 113 73628 52%
c w 1071.43 83 304 15 48 3271 221348 22869 3929 569580 17% 113 73625 52%
c = 1071.86 83 304 15 48 3271 221348 22869 4015 569461 17% 113 73576 52%
c d 1071.90 83 304 15 48 3271 221348 22835 3809 569460 17% 113 73576 52%
c t 1071.95 83 304 15 48 3271 221348 22835 3501 569460 17% 113 73576 52%
c i 1071.95 83 304 15 48 3271 221348 22835 3501 569460 17% 113 73576 52%
c I 1080.32 83 303 15 48 3272 223170 24653 3501 569460 17% 113 73576 52%
c - 1088.69 83 302 15 49 3274 225968 21302 3426 569460 17% 113 73576 52%
c ] 1107.30 83 301 16 49 3275 229478 24804 3427 569460 18% 114 73576 52%
c { 1107.30 83 219 16 49 3275 229478 24804 3427 569460 46% 7 73576 52%
c i 1108.25 83 220 16 49 3290 229567 24873 3431 569459 46% 7 73574 52%
c i 1108.32 83 220 16 49 3290 229573 24877 3432 569459 46% 7 73572 52%
c i 1108.38 83 220 16 49 3290 229603 24898 3435 569458 46% 7 73570 52%
c i 1108.75 83 219 16 49 3290 229629 24919 3438 569457 46% 7 73564 52%
c i 1108.76 83 219 16 49 3290 229630 24919 3438 569457 46% 7 73557 52%
c i 1108.76 83 219 16 49 3290 229635 24923 3438 569457 46% 7 73541 52%
c i 1108.76 83 219 16 49 3290 229638 24923 3440 569456 46% 7 73498 52%
c i 1108.77 83 219 16 49 3290 229662 24937 3442 569456 46% 7 73497 52%
c i 1108.80 83 219 16 49 3290 229674 24941 3447 569456 46% 7 73496 52%
c } 1108.81 83 219 16 49 3290 229676 24941 3447 569456 46% 7 66026 47%
c
c   seconds     switched    conflicts        irredundant   variables
c           MB    reductions       redundant          trail     remaining
c             level    restarts           binary         glue
c
c 0 1108.81 83 219 16 49 3290 229676 24941 3447 569456 46% 7 66026 47%
c
c ---- [ result ] ------------------------------------------------------------
c
s UNSATISFIABLE
c
c ---- [ profiling ] ---------------------------------------------------------
c
c        1073.48   96.81 %  search
c         596.57   53.80 %  focused
c         476.91   43.01 %  stable
c          35.12    3.17 %  simplify
c          23.85    2.15 %  probe
c          18.40    1.66 %  vivify
c           7.34    0.66 %  walking
c           3.94    0.35 %  eliminate
c           3.73    0.34 %  sweep
c           1.37    0.12 %  substitute
c           0.73    0.07 %  reduce
c           0.34    0.03 %  subsume
c           0.22    0.02 %  transitive
c           0.21    0.02 %  parse
c           0.12    0.01 %  backbone
c           0.00    0.00 %  warmup
c =============================================
c        1108.81  100.00 %  total
c
c ---- [ statistics ] --------------------------------------------------------
c
c chronological:                         1170                1 %  conflicts
c conflicts:                           229676              207.14 per second
c decisions:                          1003840                4.37 per conflict
c eliminated:                           46127               33 %  variables
c jumped_reasons:                    12090163                0 %  propagations
c propagations:                    3783499370          3412218    per second
c queue_decisions:                     210615               21 %  decision
c random_decisions:                    470902               47 %  decision
c random_sequences:                        42             5468    interval
c reductions:                              49             4687    interval
c rephased:                                15            15312    interval
c restarts:                              3290               69.81 interval
c score_decisions:                     322323               32 %  decision
c strengthened:                         14573                0 %  checks
c substituted:                           4497                3 %  variables
c subsumed:                             19192                0 %  checks
c switched:                                16            14355    interval
c vivified:                             26954                0 %  checks
c vivify_checks:                      5780251           525477    per vivify
c vivify_units:                             7                0 %  variables
c walk_improved:                            5              100 %  walks
c walks:                                    5            45935    interval
c
c ---- [ resources ] ---------------------------------------------------------
c
c maximum-resident-set-size:         92991488 bytes         89 MB
c process-time:                        18m 29s            1108.81 seconds
c
c ---- [ shutting down ] -----------------------------------------------------
c
c exit 20
